
(set-logic HORN)
(define-fun zero_8 () Int 0)
(define-fun succ_8 ((x Int)) Int (+ x 1))
(declare-datatypes ((Bool_93 0)) (((false_93) (true_93))))
(declare-fun diseqBool_42 (Bool_93 Bool_93) Bool)
(declare-fun isfalse_42 (Bool_93) Bool)
(declare-fun istrue_42 (Bool_93) Bool)
(assert (isfalse_42 false_93))
(assert (istrue_42 true_93))
(assert (diseqBool_42 false_93 true_93))
(assert (diseqBool_42 true_93 false_93))
(declare-fun and_93 (Bool_93 Bool_93 Bool_93) Bool)
(declare-fun or_94 (Bool_93 Bool_93 Bool_93) Bool)
(declare-fun hence_93 (Bool_93 Bool_93 Bool_93) Bool)
(declare-fun not_93 (Bool_93 Bool_93) Bool)
(assert (and_93 false_93 false_93 false_93))
(assert (and_93 false_93 true_93 false_93))
(assert (and_93 false_93 false_93 true_93))
(assert (and_93 true_93 true_93 true_93))
(assert (or_94 false_93 false_93 false_93))
(assert (or_94 true_93 true_93 false_93))
(assert (or_94 true_93 false_93 true_93))
(assert (or_94 true_93 true_93 true_93))
(assert (hence_93 true_93 false_93 false_93))
(assert (hence_93 false_93 true_93 false_93))
(assert (hence_93 true_93 false_93 true_93))
(assert (hence_93 true_93 true_93 true_93))
(assert (not_93 true_93 false_93))
(assert (not_93 false_93 true_93))
(declare-fun diseqInt (Int Int) Bool)
(declare-fun p_26 (Int Int) Bool)
(declare-fun iszero_8 (Int) Bool)
(declare-fun issucc_8 (Int) Bool)
(assert (forall ((x_9330 Int))
	(p_26 x_9330 (succ_8 x_9330))))
(assert (iszero_8 zero_8))
(assert (forall ((x_9332 Int))
	(issucc_8 (succ_8 x_9332))))
(assert (forall ((x_9333 Int))
	(diseqInt zero_8 (succ_8 x_9333))))
(assert (forall ((x_9334 Int))
	(diseqInt (succ_8 x_9334) zero_8)))
(assert (forall ((x_9335 Int) (x_9336 Int))
	(=> (diseqInt x_9335 x_9336) (diseqInt (succ_8 x_9335) (succ_8 x_9336)))))
(declare-fun leq_3 (Bool_93 Int Int) Bool)
(assert (forall ((x_9314 Bool_93) (x_9312 Int) (z_494 Int))
	(=> (leq_3 x_9314 z_494 x_9312) (leq_3 x_9314 (succ_8 z_494) (succ_8 x_9312)))))
(assert (forall ((z_494 Int))
	(leq_3 false_93 (succ_8 z_494) zero_8)))
(assert (forall ((y_424 Int))
	(leq_3 true_93 zero_8 y_424)))
(assert (forall ((x_9313 Int) (y_425 Int))
	(=> (and true (diseqInt x_9313 x_9313) (leq_3 true_93 x_9313 x_9313) (leq_3 true_93 x_9313 y_425)) false)))
(assert (forall ((x_9313 Int) (y_425 Int))
	(=> (and true (diseqInt x_9313 x_9313) (leq_3 false_93 x_9313 x_9313) (leq_3 true_93 x_9313 y_425)) false)))
(assert (forall ((x_9313 Int) (y_425 Int))
	(=> (and true (diseqInt y_425 x_9313) (leq_3 true_93 x_9313 y_425) (leq_3 false_93 x_9313 y_425)) false)))
(assert (forall ((x_9313 Int) (y_425 Int))
	(=> (and true (diseqInt x_9313 x_9313) (leq_3 false_93 x_9313 y_425) (leq_3 false_93 x_9313 y_425)) false)))
(check-sat)
